(set-logic ALL)
(set-option :produce-models true)
(declare-sort BoundSet 0)
(declare-sort UnboundSet 0)
(set-option :finite-model-find true)
(declare-fun IsWearing (BoundSet BoundSet) Bool)
(declare-fun IsStretching (BoundSet) Bool)
(assert (not (=> (exists ((a BoundSet)) (exists ((b BoundSet)) (IsWearing a b))) (exists ((a BoundSet)) (IsStretching a)))))
(check-sat)
(get-model)